1955.69 0
0 16 4 3 5 10 1 2 9 8 6 100 7 0
0 27 13 83 85 81 82 86 84 87 50 66 65 61 0
0 64 60 29 44 58 67 30 28 41 39 40 33 31 36 34 42 37 46 32 68 0
0 22 14 73 74 75 24 0
0 52 55 57 76 56 63 35 45 59 53 0
0 17 99 26 20 19 0
0 25 21 15 12 0
0 18 92 90 96 91 23 0
0 49 54 48 47 38 43 62 0
0 51 80 79 78 77 69 71 72 70 0
0 95 98 94 88 89 93 97 11 0